<?xml version = "1.0" encoding="UTF-8" standalone="yes"?>
<CPLEXSolution version="1.2">
 <header
   problemName="results/EmployeeRostering1.mps"
   solutionName="incumbent"
   solutionIndex="-1"
   objectiveValue="8100"
   solutionTypeValue="3"
   solutionTypeString="primal"
   solutionStatusValue="101"
   solutionStatusString="integer optimal solution"
   solutionMethodString="mip"
   primalFeasible="1"
   dualFeasible="1"
   MIPNodes="0"
   MIPIterations="0"
   writeLevel="1"/>
 <quality
   epInt="1e-05"
   epRHS="1e-06"
   maxIntInfeas="0"
   maxPrimalInfeas="0"
   maxX="8100"
   maxSlack="0"/>
 <linearConstraints>
  <constraint name="C1" index="0" slack="0"/>
  <constraint name="C2" index="1" slack="0"/>
  <constraint name="C3" index="2" slack="0"/>
  <constraint name="C4" index="3" slack="0"/>
  <constraint name="C5" index="4" slack="0"/>
  <constraint name="C6" index="5" slack="0"/>
  <constraint name="C7" index="6" slack="0"/>
  <constraint name="C8" index="7" slack="0"/>
 </linearConstraints>
 <variables>
  <variable name="MonFT" index="0" value="5"/>
  <variable name="MonPT" index="1" value="0"/>
  <variable name="TueFT" index="2" value="8"/>
  <variable name="TuePT" index="3" value="0"/>
  <variable name="WedFT" index="4" value="9"/>
  <variable name="WedPT" index="5" value="0"/>
  <variable name="ThuFT" index="6" value="10"/>
  <variable name="ThuPT" index="7" value="0"/>
  <variable name="FriFT" index="8" value="14"/>
  <variable name="FriPT" index="9" value="2"/>
  <variable name="SatFT" index="10" value="14"/>
  <variable name="SatPT" index="11" value="4"/>
  <variable name="SunFT" index="12" value="12"/>
  <variable name="SunPT" index="13" value="0"/>
  <variable name="Cost" index="14" value="8100"/>
 </variables>
</CPLEXSolution>
